(set-logic HORN)
(declare-fun state (Bool Bool Bool (Array Int Int) Int Int Int Int Int Int) Bool)
(assert (forall ((|!pc[2]| Bool) (|!pc[1]| Bool) (|!pc[0]| Bool) (|!{array.1}| (Array Int Int)) (|!{SIZE}| Int) (|!{x}| Int) (|!{i}| Int) (|!{largest}| Int) (|arrlambda_0| Int) (|proph0| Int) (|!{array.1}.next| (Array Int Int)) (|proph0.next| Int) (|!{x}.next| Int) (|!{i}.next| Int) (|arrlambda_0.next| Int) (|nd<0>| Int) (|%{array.1}#1| (Array Int Int)) (|!{SIZE}.next| Int) (|!{largest}.next| Int) (|%{largest}#1| Int) (|%{x}#1| Int) (|!pc[2].next| Bool) (|!pc[1].next| Bool) (|!pc[0].next| Bool) (|%{largest}#2| Int) (|nd_char<0>| Int)) (=> (and (and (not |!pc[0]|) (not |!pc[1]|)) (not |!pc[2]|)) (state |!pc[2]| |!pc[1]| |!pc[0]| |!{array.1}| |!{SIZE}| |!{x}| |!{i}| |!{largest}| |arrlambda_0| |proph0|))))
(assert (forall ((|!pc[2]| Bool) (|!pc[1]| Bool) (|!pc[0]| Bool) (|!{array.1}| (Array Int Int)) (|!{SIZE}| Int) (|!{x}| Int) (|!{i}| Int) (|!{largest}| Int) (|arrlambda_0| Int) (|proph0| Int) (|!{array.1}.next| (Array Int Int)) (|proph0.next| Int) (|!{x}.next| Int) (|!{i}.next| Int) (|arrlambda_0.next| Int) (|nd<0>| Int) (|%{array.1}#1| (Array Int Int)) (|!{SIZE}.next| Int) (|!{largest}.next| Int) (|%{largest}#1| Int) (|%{x}#1| Int) (|!pc[2].next| Bool) (|!pc[1].next| Bool) (|!pc[0].next| Bool) (|%{largest}#2| Int) (|nd_char<0>| Int)) (=> (and (state |!pc[2]| |!pc[1]| |!pc[0]| |!{array.1}| |!{SIZE}| |!{x}| |!{i}| |!{largest}| |arrlambda_0| |proph0|) (let ((.def_20 (not |!pc[0]|))) (let ((.def_21 (not |!pc[1]|))) (let ((.def_23 (not |!pc[2]|))) (let ((.def_30 (= |!{array.1}| |!{array.1}.next|))) (let ((.def_31 (not .def_30))) (let ((.def_46 (select |!{array.1}| 0))) (let ((.def_70 (not |!pc[2].next|))) (let ((.def_72 (not |!pc[1].next|))) (let ((.def_74 (and .def_72 |!pc[0].next|))) (let ((.def_75 (and .def_70 .def_74))) (let ((.def_79 (<= (select |!{array.1}| |!{x}|) |!{largest}|))) (let ((.def_82 (= |!{SIZE}| |!{SIZE}.next|))) (let ((.def_84 (= |!{i}| |!{i}.next|))) (let ((.def_86 (= |!{largest}| |!{largest}.next|))) (let ((.def_88 (= |!{x}| |!{x}.next|))) (let ((.def_90 (<= |!{SIZE}| |!{x}|))) (let ((.def_91 (not .def_90))) (let ((.def_96 (and .def_23 (and |!pc[1]| .def_20)))) (let ((.def_104 (and .def_30 .def_82))) (let ((.def_106 (and .def_86 (and .def_84 .def_104)))) (let ((.def_107 (and (= (+ |!{x}| (* (- 1) |!{x}.next|)) (- 1)) .def_106))) (let ((.def_110 (not |!pc[0].next|))) (let ((.def_112 (and .def_70 (and |!pc[1].next| .def_110)))) (let ((.def_128 (and .def_23 (and |!pc[1]| |!pc[0]|)))) (let ((.def_134 (select |!{array.1}| |!{i}|))) (let ((.def_135 (<= .def_134 |!{largest}|))) (let ((.def_145 (= (+ |!{i}| (* (- 1) |!{i}.next|)) (- 1)))) (let ((.def_151 (<= |!{SIZE}| |!{i}|))) (let ((.def_152 (not .def_151))) (let ((.def_154 (and |!pc[0]| .def_21))) (let ((.def_155 (and |!pc[2]| .def_154))) (let ((.def_156 (and |!pc[2].next| .def_74))) (let ((.def_174 (and .def_23 .def_154))) (and (or (= (select |!{array.1}.next| proph0.next) (select |!{array.1}| proph0.next)) .def_31) (and (or .def_31 (= (select |!{array.1}| |!{x}.next|) (select |!{array.1}.next| |!{x}.next|))) (and (or .def_31 (= (select |!{array.1}| |!{i}.next|) (select |!{array.1}.next| |!{i}.next|))) (and (= proph0 proph0.next) (and (or .def_31 (= (select |!{array.1}.next| 0) .def_46)) (and (and (= arrlambda_0 arrlambda_0.next) (or (or (or (or (and (and (not (<= nd<0> 0)) (and (and (and (and (= |!{array.1}.next| |%{array.1}#1|) (= nd<0> |!{SIZE}.next|)) (= |!{i}.next| 0)) (= |!{largest}.next| |%{largest}#1|)) (= |!{x}.next| |%{x}#1|))) (and (and (and .def_20 .def_21) .def_23) .def_75)) (or (or (and (and (and (and (and (and (and .def_30 (not .def_79)) .def_82) .def_84) .def_86) .def_88) .def_91) (and (and .def_70 (and |!pc[1].next| |!pc[0].next|)) .def_96)) (and (and .def_91 (and .def_79 .def_107)) (and .def_96 .def_112))) (and (and .def_88 (and .def_86 (and .def_84 (and .def_82 (and .def_30 .def_90))))) (and .def_96 (and |!pc[2].next| (and .def_72 .def_110)))))) (and .def_107 (and .def_112 .def_128))) (or (and (and (and (or (and (= |!{largest}| |%{largest}#2|) .def_135) (and (not .def_135) (= |%{largest}#2| .def_134))) (and .def_88 (and (and .def_104 .def_145) (= |!{largest}.next| |%{largest}#2|)))) .def_152) (and .def_155 .def_156)) (and (and .def_151 (and .def_106 (= |!{x}.next| 0))) (and .def_112 .def_155)))) (or (and (and .def_152 (and .def_88 (and .def_86 (and .def_145 (and .def_82 (= |!{array.1}.next| (store |!{array.1}| |!{i}| nd_char<0>))))))) (and .def_75 .def_174)) (and (and .def_151 (and .def_88 (and (and .def_104 (= |!{i}.next| 1)) (= .def_46 |!{largest}.next|)))) (and .def_156 .def_174))))) (not .def_128))))))))))))))))))))))))))))))))))))))))) (state |!pc[2].next| |!pc[1].next| |!pc[0].next| |!{array.1}.next| |!{SIZE}.next| |!{x}.next| |!{i}.next| |!{largest}.next| |arrlambda_0.next| |proph0.next|))))
(assert (forall ((|!pc[2]| Bool) (|!pc[1]| Bool) (|!pc[0]| Bool) (|!{array.1}| (Array Int Int)) (|!{SIZE}| Int) (|!{x}| Int) (|!{i}| Int) (|!{largest}| Int) (|arrlambda_0| Int) (|proph0| Int) (|!{array.1}.next| (Array Int Int)) (|proph0.next| Int) (|!{x}.next| Int) (|!{i}.next| Int) (|arrlambda_0.next| Int) (|nd<0>| Int) (|%{array.1}#1| (Array Int Int)) (|!{SIZE}.next| Int) (|!{largest}.next| Int) (|%{largest}#1| Int) (|%{x}#1| Int) (|!pc[2].next| Bool) (|!pc[1].next| Bool) (|!pc[0].next| Bool) (|%{largest}#2| Int) (|nd_char<0>| Int)) (=> (state |!pc[2]| |!pc[1]| |!pc[0]| |!{array.1}| |!{SIZE}| |!{x}| |!{i}| |!{largest}| |arrlambda_0| |proph0|) (or (not (and (not |!pc[2]|) (and |!pc[1]| |!pc[0]|))) (not (= |!{x}| proph0))))))
(check-sat)
